
Gurobi 11.0.3 (linux64) logging started Mon Aug 25 13:24:59 2025

Set parameter LogFile to value "/home/yihong/Coding/OR_SUC/SUC_epstheta_results_bigM100000_thread4/case24_ieee_rts_theta0.1_epsilon0.1_gurobi_seed220000_num_gen100_N_WDR50_load_scaling_factor1_ori_eps_T3quadra_cost_bc1.03.txt"
Set parameter TimeLimit to value 3600
Gurobi Optimizer version 11.0.3 build v11.0.3rc0 (linux64 - "Ubuntu 20.04.6 LTS")

CPU model: AMD EPYC 7532 32-Core Processor, instruction set [SSE2|AVX|AVX2]
Thread count: 64 physical cores, 128 logical processors, using up to 4 threads

Academic license 2399124 - for non-commercial use only - registered to yi___@ed.ac.uk
Optimize a model with 6709 rows, 3771 columns and 162814 nonzeros
Model fingerprint: 0x98fc88c4
Model has 300 quadratic constraints
Variable types: 3471 continuous, 300 integer (300 binary)
Coefficient statistics:
  Matrix range     [3e-04, 2e+03]
  QMatrix range    [2e-03, 8e-03]
  QLMatrix range   [2e-01, 6e+01]
  Objective range  [1e+00, 1e+00]
  Bounds range     [1e+00, 1e+00]
  RHS range        [1e+00, 8e+03]
Presolve removed 5702 rows and 1801 columns
Presolve time: 0.04s
Presolved: 1007 rows, 1970 columns, 6789 nonzeros
Presolved model has 300 quadratic constraint(s)
Variable types: 1670 continuous, 300 integer (300 binary)

Root relaxation: objective 3.569723e+03, 654 iterations, 0.01 seconds (0.01 work units)

    Nodes    |    Current Node    |     Objective Bounds      |     Work
 Expl Unexpl |  Obj  Depth IntInf | Incumbent    BestBd   Gap | It/Node Time

     0     0 3569.72267    0    6          - 3569.72267      -     -    0s
     0     0 4205.27842    0   63          - 4205.27842      -     -    0s
     0     0 10504.3732    0  150          - 10504.3732      -     -    0s
     0     0 40073.9018    0  152          - 40073.9018      -     -    0s
     0     0 45993.4358    0   40          - 45993.4358      -     -    0s
     0     0 45995.1224    0   40          - 45995.1224      -     -    0s
     0     0 46002.8953    0   34          - 46002.8953      -     -    0s
     0     0 46004.0011    0   31          - 46004.0011      -     -    0s
     0     0 46004.0011    0   31          - 46004.0011      -     -    0s
     0     2 46004.0011    0   31          - 46004.0011      -     -    0s
H   98   107                    46020.162505 46006.0185  0.03%   5.7    0s
*   98   107              28    46020.162505 46006.0185  0.03%   5.7    0s
H  110   107                    46008.215519 46006.0185  0.00%   5.3    0s
*  110   107              24    46008.215519 46006.0185  0.00%   5.4    0s

Cutting planes:
  Gomory: 1
  Implied bound: 114
  MIR: 32
  Flow cover: 151

Explored 130 nodes (3654 simplex iterations) in 0.45 seconds (0.37 work units)
Thread count was 4 (of 128 available processors)

Solution count 3: 46008.2 46008.2 46020.2 

Optimal solution found (tolerance 1.00e-03)
Warning: max constraint violation (1.5947e-07) exceeds tolerance
Best objective 4.600821551903e+04, best bound 4.600601850253e+04, gap 0.0048%

Gurobi 11.0.3 (linux64) logging started Mon Aug 25 13:25:00 2025

Set parameter LogFile to value "/home/yihong/Coding/OR_SUC/SUC_epstheta_results_bigM100000_thread4/case24_ieee_rts_theta0.1_epsilon0.1_gurobi_seed220000_num_gen100_N_WDR50_load_scaling_factor1_ori_eps_T3quadra_cost_bc1.03.txt"
Set parameter TimeLimit to value 3600
Gurobi Optimizer version 11.0.3 build v11.0.3rc0 (linux64 - "Ubuntu 20.04.6 LTS")

CPU model: AMD EPYC 7532 32-Core Processor, instruction set [SSE2|AVX|AVX2]
Thread count: 64 physical cores, 128 logical processors, using up to 4 threads

Academic license 2399124 - for non-commercial use only - registered to yi___@ed.ac.uk
Optimize a model with 17005 rows, 3772 columns and 1276951 nonzeros
Model fingerprint: 0xb4801332
Model has 301 quadratic constraints
Variable types: 3472 continuous, 300 integer (300 binary)
Coefficient statistics:
  Matrix range     [3e-04, 2e+03]
  QMatrix range    [2e-03, 5e+01]
  QLMatrix range   [2e-01, 6e+01]
  Objective range  [1e+00, 1e+00]
  Bounds range     [1e-01, 1e+00]
  RHS range        [7e-02, 5e+04]
  QRHS range       [5e+00, 5e+00]
Presolve removed 5127 rows and 1528 columns
Presolve time: 1.01s
Presolved: 12180 rows, 2545 columns, 258154 nonzeros
Presolved model has 300 quadratic constraint(s)
Presolved model has 1 bilinear constraint(s)
Warning: Model contains variables with very large bounds participating
         in product terms.
         Presolve was not able to compute smaller bounds for these variables.
         Consider bounding these variables or reformulating the model.


Solving non-convex MIQCP

Variable types: 2243 continuous, 302 integer (302 binary)

Root relaxation: objective 0.000000e+00, 1492 iterations, 0.22 seconds (0.61 work units)

    Nodes    |    Current Node    |     Objective Bounds      |     Work
 Expl Unexpl |  Obj  Depth IntInf | Incumbent    BestBd   Gap | It/Node Time

     0     0    0.00000    0    8          -    0.00000      -     -    2s
     0     0    0.00000    0    4          -    0.00000      -     -    3s
     0     0    0.00000    0    4          -    0.00000      -     -    3s
     0     0    0.00000    0    4          -    0.00000      -     -    3s
     0     0    0.00000    0    4          -    0.00000      -     -    3s
     0     0    0.00000    0    4          -    0.00000      -     -    4s
     0     2    0.00000    0    4          -    0.00000      -     -  189s
     1     4    0.00000    1    1          -    0.00000      -   9.0  190s
   234   220    0.00000   17    1          -    0.00000      -   127  195s
   430   387    0.02558   19    3          -    0.00000      -   112  208s
   435   390    0.02262   19    3          -    0.00000      -   110  210s
H  441   374                       0.0921858    0.00000   100%   109  218s
H  442   358                       0.0913667    0.00000   100%   112  218s
H  469   361                       0.0450251    0.00000   100%   107  219s
H  472   343                       0.0436214    0.00000   100%   106  219s
   477   349    0.00884   15   10    0.04362    0.00000   100%   120  220s
H  993   515                       0.0247185    0.00000   100%  66.1  224s
  1007   510    0.02234   95    2    0.02472    0.00000   100%  65.3  225s
* 1316   486             149       0.0223353    0.00000   100%  67.4  227s
  1719   773    0.02214   95    2    0.02234    0.00000   100%  59.9  230s
* 1743   457             107       0.0221399    0.00000   100%  59.1  230s
H 1975   336                       0.0219129    0.00000   100%  55.6  231s
  2186   146 infeasible   20         0.02191    0.00186  91.5%  53.1  235s
  2927    56    0.02182   21    6    0.02191    0.02180  0.52%  43.1  240s

Cutting planes:
  Implied bound: 1
  RLT: 8

Explored 3276 nodes (130359 simplex iterations) in 241.05 seconds (203.60 work units)
Thread count was 4 (of 128 available processors)

Solution count 8: 0.0219129 0.0221399 0.0223353 ... 0.0921858

Optimal solution found (tolerance 1.00e-03)
Best objective 2.191287077608e-02, best bound 2.191287077608e-02, gap 0.0000%
